nN = 8;
nR = 40;
nH = 1;

a = [[15, 22, 24, 17, 15, 16, 23, 24, 16, 20, 25, 18, 21, 15, 19, 25, 16, 15, 16, 24, 17, 16, 22, 18, 15, 15, 16, 15, 17, 19, 19, 20, 15, 19, 23, 21, 23, 16, 19, 16], [18, 20, 25, 17, 22, 22, 18, 22, 20, 23, 16, 21, 21, 24, 21, 25, 21, 20, 16, 17, 22, 18, 18, 22, 15, 16, 16, 16, 17, 25, 19, 20, 21, 15, 21, 25, 18, 24, 24, 21], [20, 17, 22, 16, 24, 23, 18, 22, 19, 20, 25, 19, 21, 25, 18, 24, 24, 17, 15, 17, 21, 16, 25, 16, 18, 21, 22, 23, 21, 20, 15, 23, 23, 25, 23, 19, 19, 22, 21, 17], [17, 24, 25, 21, 21, 22, 16, 20, 15, 15, 24, 21, 16, 20, 24, 19, 18, 21, 21, 17, 20, 16, 25, 21, 15, 25, 18, 16, 15, 23, 15, 20, 16, 23, 21, 20, 21, 25, 17, 25], [25, 25, 25, 21, 17, 25, 16, 23, 17, 19, 16, 25, 22, 23, 21, 25, 22, 25, 20, 22, 22, 17, 19, 24, 22, 18, 16, 17, 25, 17, 25, 16, 17, 21, 19, 16, 19, 16, 21, 20], [16, 19, 18, 23, 16, 18, 19, 20, 15, 16, 21, 24, 15, 20, 19, 24, 21, 15, 24, 16, 23, 20, 20, 22, 15, 17, 19, 17, 20, 24, 24, 19, 19, 23, 24, 25, 22, 18, 21, 21], [19, 21, 20, 16, 15, 17, 19, 18, 23, 16, 25, 24, 20, 17, 18, 23, 24, 23, 16, 17, 19, 20, 16, 21, 17, 15, 21, 22, 18, 21, 20, 18, 19, 20, 25, 25, 15, 20, 19, 15], [18, 24, 21, 24, 16, 25, 21, 23, 24, 24, 25, 21, 20, 18, 15, 25, 22, 22, 24, 20, 15, 17, 20, 23, 23, 17, 20, 15, 17, 19, 22, 18, 16, 22, 18, 22, 22, 22, 23, 23]];
c = [[[0, 0, 0, 0, 0, 0, 0, 0, 0, 0, 0, 0, 0, 0, 0, 0, 0, 0, 0, 0, 0, 0, 0, 0, 0, 0, 0, 0, 0, 0, 0, 0, 0, 0, 0, 0, 0, 0, 0, 0], [31, 41, 41, 32, 38, 36, 41, 46, 48, 44, 42, 33, 38, 33, 39, 37, 39, 50, 33, 38, 49, 40, 30, 50, 44, 44, 35, 34, 44, 34, 50, 45, 30, 43, 50, 30, 31, 46, 40, 45], [38, 43, 38, 33, 42, 40, 39, 40, 32, 44, 38, 31, 50, 30, 35, 36, 47, 50, 41, 47, 50, 49, 45, 33, 49, 38, 43, 36, 37, 32, 34, 41, 38, 42, 32, 41, 41, 45, 43, 46], [42, 38, 35, 48, 41, 50, 41, 48, 39, 33, 31, 41, 33, 41, 35, 31, 37, 37, 48, 49, 43, 38, 45, 33, 44, 34, 34, 34, 40, 38, 48, 30, 49, 37, 33, 41, 39, 43, 31, 35], [48, 41, 36, 43, 31, 43, 46, 31, 39, 32, 36, 50, 32, 31, 43, 45, 32, 44, 31, 30, 32, 30, 41, 47, 41, 50, 44, 49, 45, 36, 30, 41, 43, 42, 47, 30, 46, 47, 43, 39], [47, 38, 39, 50, 35, 30, 40, 47, 31, 41, 50, 31, 36, 34, 38, 40, 32, 41, 44, 42, 31, 44, 33, 43, 46, 49, 34, 50, 43, 40, 42, 33, 38, 43, 48, 31, 40, 48, 48, 43], [39, 40, 36, 31, 43, 37, 37, 40, 41, 41, 38, 47, 39, 32, 37, 49, 45, 36, 46, 35, 40, 31, 39, 36, 39, 31, 44, 43, 37, 44, 31, 47, 39, 37, 42, 34, 49, 50, 41, 45], [33, 31, 30, 31, 48, 35, 48, 42, 48, 31, 31, 45, 42, 38, 35, 47, 39, 39, 45, 33, 38, 37, 42, 41, 44, 42, 46, 40, 37, 38, 31, 33, 45, 46, 34, 47, 50, 45, 36, 36]], [[0, 0, 0, 0, 0, 0, 0, 0, 0, 0, 0, 0, 0, 0, 0, 0, 0, 0, 0, 0, 0, 0, 0, 0, 0, 0, 0, 0, 0, 0, 0, 0, 0, 0, 0, 0, 0, 0, 0, 0], [0, 0, 0, 0, 0, 0, 0, 0, 0, 0, 0, 0, 0, 0, 0, 0, 0, 0, 0, 0, 0, 0, 0, 0, 0, 0, 0, 0, 0, 0, 0, 0, 0, 0, 0, 0, 0, 0, 0, 0], [34, 47, 42, 37, 41, 41, 50, 35, 33, 33, 36, 32, 48, 30, 40, 35, 32, 48, 37, 41, 46, 40, 43, 32, 48, 42, 42, 43, 38, 45, 42, 47, 31, 50, 31, 49, 32, 40, 39, 40], [34, 43, 49, 32, 46, 50, 41, 33, 38, 44, 44, 37, 35, 47, 46, 40, 48, 40, 40, 35, 48, 35, 38, 35, 34, 35, 45, 46, 40, 37, 47, 31, 35, 45, 31, 40, 50, 46, 49, 43], [38, 32, 44, 36, 36, 49, 41, 49, 39, 30, 37, 41, 34, 48, 43, 34, 41, 49, 31, 41, 33, 42, 47, 34, 44, 31, 34, 44, 49, 49, 47, 30, 44, 43, 30, 43, 41, 38, 41, 36], [30, 44, 32, 47, 34, 49, 42, 39, 39, 33, 50, 44, 42, 33, 30, 47, 41, 44, 38, 36, 37, 47, 43, 38, 47, 47, 39, 38, 31, 38, 31, 46, 42, 40, 31, 33, 45, 40, 37, 41], [39, 36, 49, 37, 42, 40, 39, 49, 32, 39, 32, 46, 45, 42, 39, 30, 43, 47, 39, 43, 41, 36, 43, 38, 49, 41, 37, 40, 44, 30, 45, 35, 47, 38, 33, 34, 37, 39, 50, 49], [44, 31, 36, 36, 34, 40, 32, 40, 34, 41, 38, 34, 43, 46, 45, 32, 49, 36, 32, 49, 41, 48, 46, 31, 33, 50, 49, 46, 36, 48, 43, 46, 45, 31, 41, 36, 34, 50, 39, 34]], [[0, 0, 0, 0, 0, 0, 0, 0, 0, 0, 0, 0, 0, 0, 0, 0, 0, 0, 0, 0, 0, 0, 0, 0, 0, 0, 0, 0, 0, 0, 0, 0, 0, 0, 0, 0, 0, 0, 0, 0], [0, 0, 0, 0, 0, 0, 0, 0, 0, 0, 0, 0, 0, 0, 0, 0, 0, 0, 0, 0, 0, 0, 0, 0, 0, 0, 0, 0, 0, 0, 0, 0, 0, 0, 0, 0, 0, 0, 0, 0], [0, 0, 0, 0, 0, 0, 0, 0, 0, 0, 0, 0, 0, 0, 0, 0, 0, 0, 0, 0, 0, 0, 0, 0, 0, 0, 0, 0, 0, 0, 0, 0, 0, 0, 0, 0, 0, 0, 0, 0], [43, 40, 44, 44, 37, 49, 42, 37, 41, 49, 33, 39, 40, 48, 47, 42, 44, 34, 41, 31, 30, 34, 36, 38, 36, 31, 37, 42, 45, 43, 39, 32, 32, 31, 48, 49, 30, 36, 30, 44], [50, 31, 33, 45, 37, 30, 45, 31, 34, 32, 50, 40, 40, 45, 41, 39, 36, 48, 44, 40, 44, 44, 35, 48, 41, 34, 45, 47, 46, 37, 34, 45, 47, 32, 40, 50, 50, 35, 37, 33], [30, 35, 44, 45, 42, 36, 35, 50, 45, 43, 37, 45, 33, 32, 33, 33, 32, 33, 42, 47, 47, 32, 41, 32, 49, 30, 34, 35, 41, 47, 32, 50, 42, 37, 33, 36, 33, 39, 39, 48], [45, 40, 34, 35, 41, 41, 40, 37, 49, 48, 50, 44, 50, 38, 31, 45, 43, 48, 34, 33, 45, 38, 47, 39, 42, 36, 39, 47, 34, 44, 50, 37, 34, 36, 49, 43, 41, 44, 36, 32], [36, 43, 39, 45, 50, 48, 45, 48, 44, 38, 35, 43, 32, 47, 35, 42, 36, 35, 37, 34, 50, 31, 42, 36, 30, 37, 47, 37, 40, 32, 49, 39, 46, 49, 36, 36, 41, 41, 34, 40]], [[0, 0, 0, 0, 0, 0, 0, 0, 0, 0, 0, 0, 0, 0, 0, 0, 0, 0, 0, 0, 0, 0, 0, 0, 0, 0, 0, 0, 0, 0, 0, 0, 0, 0, 0, 0, 0, 0, 0, 0], [0, 0, 0, 0, 0, 0, 0, 0, 0, 0, 0, 0, 0, 0, 0, 0, 0, 0, 0, 0, 0, 0, 0, 0, 0, 0, 0, 0, 0, 0, 0, 0, 0, 0, 0, 0, 0, 0, 0, 0], [0, 0, 0, 0, 0, 0, 0, 0, 0, 0, 0, 0, 0, 0, 0, 0, 0, 0, 0, 0, 0, 0, 0, 0, 0, 0, 0, 0, 0, 0, 0, 0, 0, 0, 0, 0, 0, 0, 0, 0], [0, 0, 0, 0, 0, 0, 0, 0, 0, 0, 0, 0, 0, 0, 0, 0, 0, 0, 0, 0, 0, 0, 0, 0, 0, 0, 0, 0, 0, 0, 0, 0, 0, 0, 0, 0, 0, 0, 0, 0], [50, 41, 45, 31, 37, 36, 47, 42, 31, 34, 43, 33, 34, 31, 49, 36, 33, 49, 33, 34, 42, 31, 50, 32, 44, 46, 38, 49, 42, 31, 36, 48, 37, 44, 32, 36, 47, 41, 32, 43], [34, 45, 33, 42, 39, 47, 50, 46, 46, 47, 45, 37, 41, 30, 31, 37, 48, 45, 37, 34, 39, 36, 40, 38, 49, 43, 44, 39, 35, 32, 32, 44, 45, 32, 37, 41, 41, 50, 43, 46], [49, 35, 46, 49, 40, 33, 35, 49, 32, 31, 50, 31, 44, 36, 35, 31, 32, 48, 44, 32, 41, 34, 49, 48, 45, 50, 38, 47, 41, 34, 45, 47, 49, 44, 32, 41, 34, 44, 47, 50], [45, 47, 37, 34, 35, 35, 36, 47, 31, 31, 35, 36, 43, 33, 33, 32, 37, 44, 34, 38, 48, 45, 42, 35, 44, 46, 49, 44, 40, 30, 31, 37, 38, 43, 38, 46, 30, 40, 49, 41]], [[0, 0, 0, 0, 0, 0, 0, 0, 0, 0, 0, 0, 0, 0, 0, 0, 0, 0, 0, 0, 0, 0, 0, 0, 0, 0, 0, 0, 0, 0, 0, 0, 0, 0, 0, 0, 0, 0, 0, 0], [0, 0, 0, 0, 0, 0, 0, 0, 0, 0, 0, 0, 0, 0, 0, 0, 0, 0, 0, 0, 0, 0, 0, 0, 0, 0, 0, 0, 0, 0, 0, 0, 0, 0, 0, 0, 0, 0, 0, 0], [0, 0, 0, 0, 0, 0, 0, 0, 0, 0, 0, 0, 0, 0, 0, 0, 0, 0, 0, 0, 0, 0, 0, 0, 0, 0, 0, 0, 0, 0, 0, 0, 0, 0, 0, 0, 0, 0, 0, 0], [0, 0, 0, 0, 0, 0, 0, 0, 0, 0, 0, 0, 0, 0, 0, 0, 0, 0, 0, 0, 0, 0, 0, 0, 0, 0, 0, 0, 0, 0, 0, 0, 0, 0, 0, 0, 0, 0, 0, 0], [0, 0, 0, 0, 0, 0, 0, 0, 0, 0, 0, 0, 0, 0, 0, 0, 0, 0, 0, 0, 0, 0, 0, 0, 0, 0, 0, 0, 0, 0, 0, 0, 0, 0, 0, 0, 0, 0, 0, 0], [45, 33, 39, 46, 30, 33, 48, 30, 31, 41, 41, 37, 45, 50, 50, 43, 32, 43, 47, 31, 37, 30, 30, 46, 36, 42, 48, 47, 32, 46, 47, 45, 45, 39, 32, 41, 36, 39, 45, 35], [32, 37, 37, 34, 43, 48, 49, 49, 39, 45, 35, 41, 49, 31, 32, 39, 32, 45, 45, 45, 30, 48, 34, 33, 45, 42, 41, 45, 41, 33, 44, 43, 49, 36, 41, 38, 50, 40, 48, 45], [33, 31, 35, 47, 47, 42, 33, 48, 43, 34, 31, 39, 34, 38, 42, 36, 35, 47, 47, 34, 32, 31, 40, 46, 48, 37, 40, 40, 49, 39, 34, 44, 45, 39, 31, 48, 34, 49, 39, 49]], [[0, 0, 0, 0, 0, 0, 0, 0, 0, 0, 0, 0, 0, 0, 0, 0, 0, 0, 0, 0, 0, 0, 0, 0, 0, 0, 0, 0, 0, 0, 0, 0, 0, 0, 0, 0, 0, 0, 0, 0], [0, 0, 0, 0, 0, 0, 0, 0, 0, 0, 0, 0, 0, 0, 0, 0, 0, 0, 0, 0, 0, 0, 0, 0, 0, 0, 0, 0, 0, 0, 0, 0, 0, 0, 0, 0, 0, 0, 0, 0], [0, 0, 0, 0, 0, 0, 0, 0, 0, 0, 0, 0, 0, 0, 0, 0, 0, 0, 0, 0, 0, 0, 0, 0, 0, 0, 0, 0, 0, 0, 0, 0, 0, 0, 0, 0, 0, 0, 0, 0], [0, 0, 0, 0, 0, 0, 0, 0, 0, 0, 0, 0, 0, 0, 0, 0, 0, 0, 0, 0, 0, 0, 0, 0, 0, 0, 0, 0, 0, 0, 0, 0, 0, 0, 0, 0, 0, 0, 0, 0], [0, 0, 0, 0, 0, 0, 0, 0, 0, 0, 0, 0, 0, 0, 0, 0, 0, 0, 0, 0, 0, 0, 0, 0, 0, 0, 0, 0, 0, 0, 0, 0, 0, 0, 0, 0, 0, 0, 0, 0], [0, 0, 0, 0, 0, 0, 0, 0, 0, 0, 0, 0, 0, 0, 0, 0, 0, 0, 0, 0, 0, 0, 0, 0, 0, 0, 0, 0, 0, 0, 0, 0, 0, 0, 0, 0, 0, 0, 0, 0], [36, 39, 41, 44, 36, 50, 32, 45, 40, 48, 40, 36, 41, 33, 37, 42, 35, 47, 32, 31, 40, 42, 45, 43, 33, 31, 36, 43, 42, 35, 37, 49, 48, 40, 41, 33, 46, 46, 38, 49], [30, 33, 38, 38, 40, 38, 46, 36, 50, 36, 33, 33, 33, 32, 49, 45, 32, 50, 42, 44, 40, 48, 34, 33, 45, 36, 44, 44, 36, 47, 34, 44, 47, 42, 36, 46, 50, 39, 30, 49]], [[0, 0, 0, 0, 0, 0, 0, 0, 0, 0, 0, 0, 0, 0, 0, 0, 0, 0, 0, 0, 0, 0, 0, 0, 0, 0, 0, 0, 0, 0, 0, 0, 0, 0, 0, 0, 0, 0, 0, 0], [0, 0, 0, 0, 0, 0, 0, 0, 0, 0, 0, 0, 0, 0, 0, 0, 0, 0, 0, 0, 0, 0, 0, 0, 0, 0, 0, 0, 0, 0, 0, 0, 0, 0, 0, 0, 0, 0, 0, 0], [0, 0, 0, 0, 0, 0, 0, 0, 0, 0, 0, 0, 0, 0, 0, 0, 0, 0, 0, 0, 0, 0, 0, 0, 0, 0, 0, 0, 0, 0, 0, 0, 0, 0, 0, 0, 0, 0, 0, 0], [0, 0, 0, 0, 0, 0, 0, 0, 0, 0, 0, 0, 0, 0, 0, 0, 0, 0, 0, 0, 0, 0, 0, 0, 0, 0, 0, 0, 0, 0, 0, 0, 0, 0, 0, 0, 0, 0, 0, 0], [0, 0, 0, 0, 0, 0, 0, 0, 0, 0, 0, 0, 0, 0, 0, 0, 0, 0, 0, 0, 0, 0, 0, 0, 0, 0, 0, 0, 0, 0, 0, 0, 0, 0, 0, 0, 0, 0, 0, 0], [0, 0, 0, 0, 0, 0, 0, 0, 0, 0, 0, 0, 0, 0, 0, 0, 0, 0, 0, 0, 0, 0, 0, 0, 0, 0, 0, 0, 0, 0, 0, 0, 0, 0, 0, 0, 0, 0, 0, 0], [0, 0, 0, 0, 0, 0, 0, 0, 0, 0, 0, 0, 0, 0, 0, 0, 0, 0, 0, 0, 0, 0, 0, 0, 0, 0, 0, 0, 0, 0, 0, 0, 0, 0, 0, 0, 0, 0, 0, 0], [42, 38, 42, 47, 49, 49, 46, 35, 47, 42, 39, 40, 47, 32, 42, 41, 49, 40, 41, 50, 41, 49, 45, 41, 38, 37, 37, 47, 40, 49, 36, 34, 45, 37, 47, 33, 39, 46, 40, 38]], [[0, 0, 0, 0, 0, 0, 0, 0, 0, 0, 0, 0, 0, 0, 0, 0, 0, 0, 0, 0, 0, 0, 0, 0, 0, 0, 0, 0, 0, 0, 0, 0, 0, 0, 0, 0, 0, 0, 0, 0], [0, 0, 0, 0, 0, 0, 0, 0, 0, 0, 0, 0, 0, 0, 0, 0, 0, 0, 0, 0, 0, 0, 0, 0, 0, 0, 0, 0, 0, 0, 0, 0, 0, 0, 0, 0, 0, 0, 0, 0], [0, 0, 0, 0, 0, 0, 0, 0, 0, 0, 0, 0, 0, 0, 0, 0, 0, 0, 0, 0, 0, 0, 0, 0, 0, 0, 0, 0, 0, 0, 0, 0, 0, 0, 0, 0, 0, 0, 0, 0], [0, 0, 0, 0, 0, 0, 0, 0, 0, 0, 0, 0, 0, 0, 0, 0, 0, 0, 0, 0, 0, 0, 0, 0, 0, 0, 0, 0, 0, 0, 0, 0, 0, 0, 0, 0, 0, 0, 0, 0], [0, 0, 0, 0, 0, 0, 0, 0, 0, 0, 0, 0, 0, 0, 0, 0, 0, 0, 0, 0, 0, 0, 0, 0, 0, 0, 0, 0, 0, 0, 0, 0, 0, 0, 0, 0, 0, 0, 0, 0], [0, 0, 0, 0, 0, 0, 0, 0, 0, 0, 0, 0, 0, 0, 0, 0, 0, 0, 0, 0, 0, 0, 0, 0, 0, 0, 0, 0, 0, 0, 0, 0, 0, 0, 0, 0, 0, 0, 0, 0], [0, 0, 0, 0, 0, 0, 0, 0, 0, 0, 0, 0, 0, 0, 0, 0, 0, 0, 0, 0, 0, 0, 0, 0, 0, 0, 0, 0, 0, 0, 0, 0, 0, 0, 0, 0, 0, 0, 0, 0], [0, 0, 0, 0, 0, 0, 0, 0, 0, 0, 0, 0, 0, 0, 0, 0, 0, 0, 0, 0, 0, 0, 0, 0, 0, 0, 0, 0, 0, 0, 0, 0, 0, 0, 0, 0, 0, 0, 0, 0]]];

q = [[[23], [19], [6], [12], [18], [17], [5], [12], [7], [11], [12], [15], [21], [16], [19], [11], [23], [7], [11], [13], [10], [24], [8], [16], [14], [8], [20], [18], [16], [25], [12], [21], [12], [20], [20], [8], [10], [5], [14], [6]], [[8], [9], [10], [7], [17], [20], [10], [8], [23], [18], [9], [18], [23], [8], [7], [20], [10], [21], [18], [19], [10], [8], [10], [6], [23], [7], [6], [17], [24], [22], [22], [9], [21], [17], [8], [6], [16], [21], [10], [14]], [[7], [22], [11], [19], [13], [10], [21], [14], [21], [7], [21], [19], [24], [10], [9], [11], [11], [25], [22], [16], [18], [25], [16], [8], [16], [18], [10], [17], [17], [21], [23], [17], [15], [20], [10], [16], [24], [14], [13], [12]], [[8], [11], [24], [20], [9], [8], [24], [22], [18], [19], [12], [12], [5], [12], [19], [13], [14], [16], [6], [10], [18], [20], [9], [7], [21], [17], [14], [15], [20], [19], [19], [20], [25], [23], [10], [13], [13], [23], [12], [8]], [[9], [8], [23], [14], [11], [9], [7], [25], [25], [16], [14], [8], [24], [11], [15], [22], [7], [17], [10], [20], [25], [11], [5], [16], [12], [12], [17], [21], [14], [14], [6], [23], [22], [9], [6], [8], [14], [8], [15], [23]], [[16], [25], [5], [21], [23], [5], [9], [7], [21], [19], [24], [6], [25], [9], [11], [7], [17], [20], [24], [17], [8], [13], [23], [23], [21], [11], [17], [10], [22], [13], [7], [5], [11], [21], [21], [12], [16], [11], [15], [14]], [[16], [11], [12], [10], [21], [9], [24], [20], [19], [18], [6], [20], [21], [9], [15], [24], [13], [25], [18], [6], [18], [6], [19], [11], [12], [6], [20], [5], [8], [18], [15], [21], [15], [23], [14], [17], [15], [6], [25], [16]], [[8], [19], [23], [9], [12], [6], [22], [14], [12], [23], [7], [19], [16], [5], [16], [6], [18], [11], [9], [15], [18], [8], [17], [18], [5], [7], [15], [6], [13], [12], [5], [10], [22], [23], [17], [11], [19], [18], [6], [11]]];
Q = [[56], [56], [64], [60], [57], [60], [60], [53]];
